Comps = {frontend0, frontend1, frontend2, backend0, backend1, database0, database1};
mustComps = {frontend0, frontend1, frontend2};
Flavs = {tiny, medium, large};
Nodes = {n1, n2, n3};
CRes = {CPU, RAM, storage, bwIn, bwOut};
NRes = {ssl, fwall, encr, avail, latency};
Flav = [{medium, large}, {medium, large}, {medium, large}, {tiny, medium, large}, {tiny, medium, large}, {large}, {large}];
Uses = [{backend0}, {backend1}, {backend0}, {backend0}, {backend1}, {backend0}, {}, {}, {database0}, {database1}, {database0}, {database1}, {}, {}];
MAX_BOUND = 1000000;

worstBounds = [0, 0, 0, 0, 0, 0, 0, 0, 0, MAX_BOUND];
bestBounds = [MAX_BOUND - i | i in worstBounds];

comReq = array2d(CompFlavs, Res, [
  4, 474, 475, 335, 732, 1, 0, 0, 95, MAX_BOUND,
  2, 272, 320, 978, 341, 0, 1, 1, 95, MAX_BOUND,
  2, 209, 332, 305, 658, 1, 1, 0, 96, MAX_BOUND,
  2, 221, 492, 834, 683, 0, 1, 1, 96, MAX_BOUND,
  2, 311, 330, 854, 436, 1, 1, 0, 95, MAX_BOUND,
  2, 327, 279, 714, 912, 1, 0, 1, 95, MAX_BOUND,
  2, 319, 456, 307, 759, 1, 1, 1, 96, MAX_BOUND,
  8, 454, 318, 605, 875, 1, 1, 1, 95, MAX_BOUND,
  2, 209, 319, 607, 948, 1, 1, 0, 97, MAX_BOUND,
  2, 417, 427, 579, 715, 0, 1, 0, 97, MAX_BOUND,
  2, 370, 202, 942, 992, 1, 1, 1, 95, MAX_BOUND,
  2, 208, 290, 841, 821, 1, 1, 0, 97, MAX_BOUND,
  2, 247, 229, 570, 460, 1, 1, 1, 97, MAX_BOUND,
  2, 210, 407, 214, 599, 0, 1, 0, 96, MAX_BOUND,
]);

nodeCap = array2d(Nodes0, Res, [bestBounds[r] | r in Res] ++ [
  16, 33932, 440989, 23640, 11714, 1, 1, 1, 98, 0,
  16, 107361, 155538, 21881, 22560, 1, 1, 1, 99, 0,
  16, 59416, 884913, 24827, 16345, 1, 1, 1, 98, 0,
]);

cost = array2d(Nodes0, Res, [
  0, 0, 0, 0, 0, 0, 0, 0, 0, 0, % no node
  16, 6, 19, 0, 0, 0, 0, 0, 0, 0,
  16, 9, 25, 0, 0, 0, 0, 0, 0, 0,
  16, 10, 22, 0, 0, 0, 0, 0, 0, 0,
]);

cons = array2d(Nodes0, Res, [
  0, 0, 0, 0, 0, 0, 0, 0, 0, 0, % no node
  41, 14, 35, 0, 0, 0, 0, 0, 0, 0,
  8, 11, 11, 0, 0, 0, 0, 0, 0, 0,
  37, 32, 3, 0, 0, 0, 0, 0, 0, 0,
]);

costWeight = 0;
consWeight = 1;

costBudget = 45142;
consBudget = 37951;

depReq = array3d(Comps, Comps, Res, [
  if c1 = frontend2 /\ c2 = backend0 /\ r = N(avail) then
    95
  elseif c1 = frontend0 /\ c2 = backend0 /\ r = N(avail) then
    97
  elseif c1 = frontend2 /\ c2 = backend1 /\ r = N(avail) then
    95
  elseif c1 = frontend0 /\ c2 = backend1 /\ r = N(avail) then
    96
  elseif c1 = frontend1 /\ c2 = backend1 /\ r = N(avail) then
    95
  elseif c1 = frontend1 /\ c2 = backend0 /\ r = N(avail) then
    96
  else
    worstBounds[r]
  endif | c1 in Comps, c2 in Comps, r in Res]);

linkCap = array3d(Nodes0, Nodes0, Res, [
  if ni = 0 \/ nj = 0 then
    bestBounds[r]
  elseif ni = nj /\ r = N(avail) then
    nodeCap[ni,r]
  elseif {ni, nj} = {n1, n3} /\ r = N(avail) then
    99
  elseif {ni, nj} = {n1, n2} /\ r = N(avail) then
    98
  elseif {ni, nj} = {n2, n3} /\ r = N(avail) then
    99
  else
    worstBounds[r]
  endif | ni in Nodes0, nj in Nodes0, r in Res]);

imp = array2d(Comps, Flavs, [
  3, 6, 8,
  6, 7, 9,
  1, 5, 8,
  1, 4, 5,
  1, 4, 10,
  4, 9, 10,
  4, 8, 9,
]);

